unsat
(error "line 2404 column 17: model is not available")
(error "line 2405 column 17: model is not available")
(error "line 2406 column 18: model is not available")
(error "line 2407 column 19: model is not available")
(error "line 2408 column 19: model is not available")
(error "line 2409 column 19: model is not available")
(error "line 2410 column 19: model is not available")
(error "line 2411 column 19: model is not available")
(error "line 2412 column 19: model is not available")
(error "line 2413 column 19: model is not available")
(error "line 2414 column 19: model is not available")
(error "line 2415 column 19: model is not available")
(error "line 2416 column 19: model is not available")
(error "line 2417 column 18: model is not available")
(error "line 2418 column 19: model is not available")
(error "line 2419 column 19: model is not available")
(error "line 2420 column 19: model is not available")
(error "line 2421 column 19: model is not available")
(error "line 2422 column 19: model is not available")
(error "line 2423 column 19: model is not available")
(error "line 2424 column 19: model is not available")
(error "line 2425 column 19: model is not available")
(error "line 2426 column 19: model is not available")
(error "line 2427 column 19: model is not available")
(error "line 2428 column 18: model is not available")
(error "line 2429 column 19: model is not available")
(error "line 2430 column 19: model is not available")
(error "line 2431 column 19: model is not available")
(error "line 2432 column 19: model is not available")
(error "line 2433 column 19: model is not available")
(error "line 2434 column 19: model is not available")
(error "line 2435 column 19: model is not available")
(error "line 2436 column 19: model is not available")
(error "line 2437 column 19: model is not available")
(error "line 2438 column 19: model is not available")
(error "line 2439 column 18: model is not available")
(error "line 2440 column 19: model is not available")
(error "line 2441 column 19: model is not available")
(error "line 2442 column 19: model is not available")
(error "line 2443 column 19: model is not available")
(error "line 2444 column 19: model is not available")
(error "line 2445 column 19: model is not available")
(error "line 2446 column 19: model is not available")
(error "line 2447 column 19: model is not available")
(error "line 2448 column 19: model is not available")
(error "line 2449 column 19: model is not available")
(error "line 2450 column 18: model is not available")
(error "line 2451 column 19: model is not available")
(error "line 2452 column 18: model is not available")
(error "line 2453 column 18: model is not available")
(error "line 2454 column 18: model is not available")
(error "line 2455 column 18: model is not available")
(error "line 2456 column 18: model is not available")
(error "line 2457 column 17: model is not available")
(error "line 2458 column 18: model is not available")
(error "line 2459 column 18: model is not available")
(error "line 2460 column 18: model is not available")
(error "line 2461 column 18: model is not available")
(error "line 2462 column 18: model is not available")
(error "line 2463 column 18: model is not available")
(error "line 2464 column 18: model is not available")
(error "line 2465 column 18: model is not available")
(error "line 2466 column 18: model is not available")
(error "line 2467 column 18: model is not available")
(error "line 2468 column 17: model is not available")
(error "line 2469 column 18: model is not available")
(error "line 2470 column 18: model is not available")
(error "line 2471 column 18: model is not available")
(error "line 2472 column 18: model is not available")
(error "line 2473 column 18: model is not available")
(error "line 2474 column 18: model is not available")
(error "line 2475 column 18: model is not available")
(error "line 2476 column 18: model is not available")
(error "line 2477 column 18: model is not available")
(error "line 2478 column 18: model is not available")
(error "line 2479 column 17: model is not available")
(error "line 2480 column 18: model is not available")
(error "line 2481 column 18: model is not available")
(error "line 2482 column 18: model is not available")
(error "line 2483 column 18: model is not available")
(error "line 2484 column 18: model is not available")
(error "line 2485 column 18: model is not available")
(error "line 2486 column 18: model is not available")
(error "line 2487 column 18: model is not available")
(error "line 2488 column 18: model is not available")
(error "line 2489 column 18: model is not available")
(error "line 2490 column 17: model is not available")
(error "line 2491 column 18: model is not available")
(error "line 2492 column 18: model is not available")
(error "line 2493 column 18: model is not available")
(error "line 2494 column 18: model is not available")
(error "line 2495 column 18: model is not available")
(error "line 2496 column 18: model is not available")
(error "line 2497 column 18: model is not available")
(error "line 2498 column 18: model is not available")
(error "line 2499 column 18: model is not available")
(error "line 2500 column 18: model is not available")
(error "line 2501 column 17: model is not available")
(error "line 2502 column 18: model is not available")
(error "line 2503 column 18: model is not available")
(error "line 2504 column 18: model is not available")
(error "line 2505 column 18: model is not available")
(error "line 2506 column 18: model is not available")
(error "line 2507 column 18: model is not available")
(error "line 2508 column 18: model is not available")
(error "line 2509 column 18: model is not available")
(error "line 2510 column 18: model is not available")
(error "line 2511 column 18: model is not available")
(error "line 2512 column 17: model is not available")
(error "line 2513 column 18: model is not available")
(error "line 2514 column 18: model is not available")
(error "line 2515 column 18: model is not available")
(error "line 2516 column 18: model is not available")
(error "line 2517 column 18: model is not available")
(error "line 2518 column 18: model is not available")
(error "line 2519 column 18: model is not available")
(error "line 2520 column 18: model is not available")
(error "line 2521 column 18: model is not available")
(error "line 2522 column 18: model is not available")
(error "line 2523 column 17: model is not available")
(error "line 2524 column 18: model is not available")
(error "line 2525 column 18: model is not available")
(error "line 2526 column 18: model is not available")
(error "line 2527 column 18: model is not available")
(error "line 2528 column 18: model is not available")
(error "line 2529 column 18: model is not available")
(error "line 2530 column 18: model is not available")
(error "line 2531 column 18: model is not available")
(error "line 2532 column 18: model is not available")
(error "line 2533 column 18: model is not available")
(error "line 2534 column 17: model is not available")
(error "line 2535 column 18: model is not available")
(error "line 2536 column 18: model is not available")
(error "line 2537 column 18: model is not available")
(error "line 2538 column 18: model is not available")
(error "line 2539 column 18: model is not available")
(error "line 2540 column 18: model is not available")
(error "line 2541 column 18: model is not available")
(error "line 2542 column 18: model is not available")
(error "line 2543 column 18: model is not available")
(error "line 2544 column 18: model is not available")
(error "line 2545 column 38: model is not available")
(error "line 2546 column 45: model is not available")
(error "line 2547 column 38: model is not available")
(error "line 2548 column 45: model is not available")
(error "line 2549 column 46: model is not available")
(error "line 2550 column 53: model is not available")
(error "line 2551 column 40: model is not available")
(error "line 2552 column 47: model is not available")
(error "line 2553 column 38: model is not available")
(error "line 2554 column 45: model is not available")
(error "line 2555 column 38: model is not available")
(error "line 2556 column 45: model is not available")
(error "line 2557 column 41: model is not available")
(error "line 2558 column 48: model is not available")
(error "line 2559 column 41: model is not available")
(error "line 2560 column 48: model is not available")
(error "line 2561 column 41: model is not available")
(error "line 2562 column 48: model is not available")
(error "line 2563 column 41: model is not available")
(error "line 2564 column 41: model is not available")
(error "line 2565 column 48: model is not available")
(error "line 2566 column 37: model is not available")
(error "line 2567 column 44: model is not available")
(error "line 2568 column 42: model is not available")
(error "line 2569 column 42: model is not available")
(error "line 2570 column 42: model is not available")
(error "line 2571 column 38: model is not available")
(error "line 2572 column 38: model is not available")
(error "line 2573 column 38: model is not available")
(error "line 2574 column 38: model is not available")
(error "line 2575 column 38: model is not available")
(error "line 2576 column 41: model is not available")
(error "line 2577 column 48: model is not available")
(error "line 2578 column 41: model is not available")
(error "line 2579 column 48: model is not available")
(error "line 2580 column 41: model is not available")
(error "line 2581 column 48: model is not available")
(error "line 2582 column 41: model is not available")
(error "line 2583 column 48: model is not available")
(error "line 2584 column 41: model is not available")
(error "line 2585 column 48: model is not available")
(error "line 2586 column 45: model is not available")
(error "line 2587 column 45: model is not available")
(error "line 2588 column 45: model is not available")
(error "line 2589 column 45: model is not available")
(error "line 2590 column 45: model is not available")
(error "line 2591 column 45: model is not available")
(error "line 2592 column 45: model is not available")
(error "line 2593 column 45: model is not available")
(error "line 2594 column 45: model is not available")
(error "line 2595 column 45: model is not available")
(error "line 2596 column 45: model is not available")
(error "line 2597 column 45: model is not available")
(error "line 2598 column 45: model is not available")
(error "line 2599 column 45: model is not available")
(error "line 2600 column 45: model is not available")
(error "line 2601 column 45: model is not available")
(error "line 2602 column 38: model is not available")
(error "line 2603 column 39: model is not available")
(error "line 2604 column 39: model is not available")
(error "line 2605 column 39: model is not available")
(error "line 2606 column 38: model is not available")
(error "line 2607 column 38: model is not available")
(error "line 2608 column 38: model is not available")
(error "line 2609 column 38: model is not available")
(error "line 2610 column 38: model is not available")
(error "line 2611 column 38: model is not available")
(error "line 2612 column 38: model is not available")
(error "line 2613 column 38: model is not available")
(error "line 2614 column 36: model is not available")
(error "line 2615 column 36: model is not available")
(error "line 2616 column 29: model is not available")
(error "line 2617 column 31: model is not available")
(error "line 2618 column 38: model is not available")
(error "line 2619 column 31: model is not available")
(error "line 2620 column 38: model is not available")
(error "line 2621 column 31: model is not available")
(error "line 2622 column 38: model is not available")
(error "line 2623 column 53: model is not available")
(error "line 2624 column 52: model is not available")
(error "line 2625 column 52: model is not available")
(error "line 2626 column 52: model is not available")
(error "line 2627 column 52: model is not available")
(error "line 2628 column 52: model is not available")
(error "line 2629 column 52: model is not available")
(error "line 2630 column 53: model is not available")
(error "line 2631 column 52: model is not available")
(error "line 2632 column 53: model is not available")
(error "line 2633 column 52: model is not available")
(error "line 2634 column 52: model is not available")
(error "line 2635 column 53: model is not available")
(error "line 2636 column 50: model is not available")
(error "line 2637 column 51: model is not available")
(error "line 2638 column 50: model is not available")
(error "line 2639 column 50: model is not available")
(error "line 2640 column 51: model is not available")
(error "line 2641 column 50: model is not available")
(error "line 2642 column 51: model is not available")
(error "line 2643 column 51: model is not available")
(error "line 2644 column 51: model is not available")
(error "line 2645 column 50: model is not available")
(error "line 2646 column 50: model is not available")
(error "line 2647 column 51: model is not available")
(error "line 2648 column 50: model is not available")
(error "line 2649 column 51: model is not available")
(error "line 2650 column 51: model is not available")
(error "line 2651 column 52: model is not available")
(error "line 2652 column 51: model is not available")
(error "line 2653 column 52: model is not available")
(error "line 2654 column 52: model is not available")
(error "line 2655 column 52: model is not available")
(error "line 2656 column 52: model is not available")
(error "line 2657 column 52: model is not available")
(error "line 2658 column 53: model is not available")
(error "line 2659 column 52: model is not available")
(error "line 2660 column 53: model is not available")
(error "line 2661 column 52: model is not available")
(error "line 2662 column 52: model is not available")
(error "line 2663 column 53: model is not available")
(error "line 2664 column 51: model is not available")
(error "line 2665 column 52: model is not available")
(error "line 2666 column 51: model is not available")
(error "line 2667 column 51: model is not available")
(error "line 2668 column 52: model is not available")
(error "line 2669 column 51: model is not available")
(error "line 2670 column 51: model is not available")
(error "line 2671 column 51: model is not available")
(error "line 2672 column 51: model is not available")
(error "line 2673 column 51: model is not available")
(error "line 2674 column 52: model is not available")
(error "line 2675 column 51: model is not available")
(error "line 2676 column 51: model is not available")
(error "line 2677 column 51: model is not available")
(error "line 2678 column 52: model is not available")
(error "line 2679 column 51: model is not available")
(error "line 2680 column 51: model is not available")
(error "line 2681 column 56: model is not available")
(error "line 2682 column 56: model is not available")
(error "line 2683 column 56: model is not available")
(error "line 2684 column 55: model is not available")
(error "line 2685 column 56: model is not available")
(error "line 2686 column 55: model is not available")
(error "line 2687 column 57: model is not available")
(error "line 2688 column 56: model is not available")
(error "line 2689 column 57: model is not available")
(error "line 2690 column 56: model is not available")
(error "line 2691 column 55: model is not available")
(error "line 2692 column 46: model is not available")
(error "line 2693 column 46: model is not available")
(error "line 2694 column 46: model is not available")
(error "line 2695 column 46: model is not available")
(error "line 2696 column 54: model is not available")
(error "line 2697 column 54: model is not available")
(error "line 2698 column 54: model is not available")
(error "line 2699 column 54: model is not available")
(error "line 2700 column 54: model is not available")
(error "line 2701 column 54: model is not available")
(error "line 2702 column 40: model is not available")
(error "line 2703 column 40: model is not available")
(error "line 2704 column 40: model is not available")
(error "line 2705 column 40: model is not available")
(error "line 2706 column 41: model is not available")
(error "line 2707 column 41: model is not available")
(error "line 2708 column 41: model is not available")
(error "line 2709 column 41: model is not available")
(error "line 2710 column 50: model is not available")
(error "line 2711 column 50: model is not available")
(error "line 2712 column 50: model is not available")
(error "line 2713 column 50: model is not available")
(error "line 2714 column 43: model is not available")
(error "line 2715 column 43: model is not available")
(error "line 2716 column 43: model is not available")
(error "line 2717 column 43: model is not available")
(error "line 2718 column 30: model is not available")
(error "line 2719 column 30: model is not available")
(error "line 2720 column 36: model is not available")
(error "line 2721 column 36: model is not available")
(error "line 2722 column 36: model is not available")
(error "line 2723 column 36: model is not available")
(error "line 2724 column 36: model is not available")
(error "line 2725 column 36: model is not available")
(error "line 2726 column 36: model is not available")
(error "line 2727 column 36: model is not available")
(error "line 2728 column 36: model is not available")
(error "line 2729 column 36: model is not available")
(error "line 2730 column 36: model is not available")
(error "line 2731 column 36: model is not available")
(error "line 2732 column 36: model is not available")
(error "line 2733 column 36: model is not available")
(error "line 2734 column 36: model is not available")
(error "line 2735 column 36: model is not available")
(error "line 2736 column 36: model is not available")
(error "line 2737 column 36: model is not available")
(error "line 2738 column 34: model is not available")
(error "line 2739 column 36: model is not available")
(error "line 2740 column 43: model is not available")
(error "line 2741 column 37: model is not available")
(error "line 2742 column 37: model is not available")
(error "line 2743 column 37: model is not available")
(error "line 2744 column 44: model is not available")
(error "line 2745 column 37: model is not available")
(error "line 2746 column 44: model is not available")
(error "line 2747 column 36: model is not available")
(error "line 2748 column 36: model is not available")
(error "line 2749 column 36: model is not available")
(error "line 2750 column 36: model is not available")
(error "line 2751 column 36: model is not available")
(error "line 2752 column 43: model is not available")
(error "line 2753 column 36: model is not available")
(error "line 2754 column 43: model is not available")
(error "line 2755 column 36: model is not available")
(error "line 2756 column 36: model is not available")
(error "line 2757 column 41: model is not available")
(error "line 2758 column 34: model is not available")
(error "line 2759 column 36: model is not available")
(error "line 2760 column 43: model is not available")
(error "line 2761 column 37: model is not available")
(error "line 2762 column 37: model is not available")
(error "line 2763 column 37: model is not available")
(error "line 2764 column 44: model is not available")
(error "line 2765 column 37: model is not available")
(error "line 2766 column 44: model is not available")
(error "line 2767 column 36: model is not available")
(error "line 2768 column 36: model is not available")
(error "line 2769 column 36: model is not available")
(error "line 2770 column 36: model is not available")
(error "line 2771 column 36: model is not available")
(error "line 2772 column 43: model is not available")
(error "line 2773 column 36: model is not available")
(error "line 2774 column 43: model is not available")
(error "line 2775 column 36: model is not available")
(error "line 2776 column 36: model is not available")
(error "line 2777 column 41: model is not available")
(error "line 2778 column 31: model is not available")
(error "line 2779 column 32: model is not available")
(error "line 2780 column 32: model is not available")
(error "line 2781 column 31: model is not available")
(error "line 2782 column 31: model is not available")
(error "line 2783 column 31: model is not available")
(error "line 2784 column 31: model is not available")
(error "line 2785 column 31: model is not available")
(error "line 2786 column 31: model is not available")
(error "line 2787 column 31: model is not available")
(error "line 2788 column 31: model is not available")
(error "line 2789 column 31: model is not available")
(error "line 2790 column 32: model is not available")
(error "line 2791 column 32: model is not available")
(error "line 2792 column 31: model is not available")
(error "line 2793 column 31: model is not available")
(error "line 2794 column 31: model is not available")
(error "line 2795 column 31: model is not available")
(error "line 2796 column 31: model is not available")
(error "line 2797 column 31: model is not available")
(error "line 2798 column 31: model is not available")
(error "line 2799 column 31: model is not available")
(error "line 2800 column 32: model is not available")
(error "line 2801 column 33: model is not available")
(error "line 2802 column 33: model is not available")
(error "line 2803 column 32: model is not available")
(error "line 2804 column 32: model is not available")
(error "line 2805 column 32: model is not available")
(error "line 2806 column 32: model is not available")
(error "line 2807 column 32: model is not available")
(error "line 2808 column 32: model is not available")
(error "line 2809 column 32: model is not available")
(error "line 2810 column 32: model is not available")
(error "line 2811 column 32: model is not available")
(error "line 2812 column 33: model is not available")
(error "line 2813 column 33: model is not available")
(error "line 2814 column 32: model is not available")
(error "line 2815 column 32: model is not available")
(error "line 2816 column 32: model is not available")
(error "line 2817 column 32: model is not available")
(error "line 2818 column 32: model is not available")
(error "line 2819 column 32: model is not available")
(error "line 2820 column 32: model is not available")
(error "line 2821 column 32: model is not available")
(error "line 2822 column 30: model is not available")
(error "line 2823 column 30: model is not available")
(error "line 2824 column 20: model is not available")
(error "line 2825 column 22: model is not available")
(error "line 2826 column 29: model is not available")
(error "line 2827 column 23: model is not available")
(error "line 2828 column 23: model is not available")
(error "line 2829 column 23: model is not available")
(error "line 2830 column 23: model is not available")
(error "line 2831 column 30: model is not available")
(error "line 2832 column 23: model is not available")
(error "line 2833 column 30: model is not available")
(error "line 2834 column 23: model is not available")
(error "line 2835 column 30: model is not available")
(error "line 2836 column 23: model is not available")
(error "line 2837 column 30: model is not available")
(error "line 2838 column 23: model is not available")
(error "line 2839 column 23: model is not available")
(error "line 2840 column 23: model is not available")
(error "line 2841 column 22: model is not available")
(error "line 2842 column 29: model is not available")
(error "line 2843 column 23: model is not available")
(error "line 2844 column 30: model is not available")
(error "line 2845 column 23: model is not available")
(error "line 2846 column 30: model is not available")
(error "line 2847 column 23: model is not available")
(error "line 2848 column 30: model is not available")
(error "line 2849 column 23: model is not available")
(error "line 2850 column 23: model is not available")
(error "line 2851 column 23: model is not available")
(error "line 2852 column 23: model is not available")
(error "line 2853 column 30: model is not available")
(error "line 2854 column 23: model is not available")
(error "line 2855 column 30: model is not available")
(error "line 2856 column 22: model is not available")
(error "line 2857 column 29: model is not available")
(error "line 2858 column 22: model is not available")
(error "line 2859 column 22: model is not available")
(error "line 2860 column 22: model is not available")
(error "line 2861 column 22: model is not available")
(error "line 2862 column 29: model is not available")
(error "line 2863 column 22: model is not available")
(error "line 2864 column 29: model is not available")
(error "line 2865 column 22: model is not available")
(error "line 2866 column 29: model is not available")
(error "line 2868 column 10: model is not available")
(:added-eqs                      800
 :arith-bound-propagations-cheap 75
 :arith-bound-propagations-lp    142
 :arith-conflicts                2
 :arith-lower                    128
 :arith-make-feasible            43
 :arith-max-columns              137
 :arith-max-rows                 102
 :arith-propagations             75
 :arith-upper                    67
 :array-ax1                      2
 :binary-propagations            3598
 :bv-bit2core                    3749
 :bv-diseqs                      4
 :bv-dynamic-diseqs              42
 :bv->core-eq                    30
 :conflicts                      32
 :decisions                      234
 :del-clause                     1217
 :eliminated-applications        16
 :eliminated-vars                21
 :max-memory                     4.95
 :memory                         3.38
 :minimized-lits                 338
 :mk-bool-var                    2027
 :mk-clause                      2397
 :num-allocs                     1996861
 :num-checks                     1
 :propagations                   5804
 :rlimit-count                   109603
 :time                           0.02
 :total-time                     0.03)

real	0m0.030s
user	0m0.026s
sys	0m0.003s
State: RE Run_time: 0.031445980072021484